results/x-long/X-n162-k11.vrp_seed-1.out
14147	1263
