results/x-long/X-n162-k11.vrp_seed-1.vrp.sol
Route #1: 15 139 126 138 133 107 122 84 160 85 121 147 159 135 72
Route #2: 150 90 145 68 58 38 73 11 48 26 28 152 45 50
Route #3: 161 77 97 117 27 9 21 60 55 1 14 89 149 17 127
Route #4: 59 156 115 141 119 144 105 10 29
Route #5: 80 111 154 140 31 100 106 88 129 95 114 62 67 20 79
Route #6: 103 40 112 157 30 118 82 2 109 148 134 124 128 110 153 143
Route #7: 155 92 125 93 132 87 4 101 151 146 39 137 108 158 91 136
Route #8: 52 116 102 96 142 43 123 56 66 94 36 35 99 130 86 53
Route #9: 23 24 49 6 13 71 37 131 57 32 16 5 120 81 74
Route #10: 78 22 34 7 44 75 33 3 19 18 64 12 51 42 8
Route #11: 54 76 41 61 46 69 65 70 113 63 104 83 98 47 25
Cost 14147.000000